82 81 38 37 1 36 55 39 75 7 87 64 11 0 85 22 25 80 68 16 98 51 57 31 24 79 29 9 54 91 94 6 99 56 32 77 59 70 8 97 46 88 15 20 48 60 78 14 26 19 74 65 96 76 47 67 66 44 2 90 84 5 13 83 34 58 62 86 63 49 73 10 4 12 50 72 17 41 92 71 3 42 43 69 61 23 52 30 33 18 21 27 53 35 28 45 93 40 95 89 

